c nIsolatedPIs 0
c maxPI 32
p cnf 179 442
c gate 33 -12 -28 0
-12 -33 0
-28 -33 0
12 28 33 0
c gate 34 12 28 0
12 -34 0
28 -34 0
-12 -28 34 0
c gate 35 -33 -34 0
-33 -35 0
-34 -35 0
33 34 35 0
c gate 36 -11 -27 0
-11 -36 0
-27 -36 0
11 27 36 0
c gate 37 -10 -26 0
-10 -37 0
-26 -37 0
10 26 37 0
c gate 38 9 25 0
9 -38 0
25 -38 0
-9 -25 38 0
c gate 39 8 24 0
8 -39 0
24 -39 0
-8 -24 39 0
c gate 40 -8 -24 0
-8 -40 0
-24 -40 0
8 24 40 0
c gate 41 -39 -40 0
-39 -41 0
-40 -41 0
39 40 41 0
c gate 42 -7 23 0
-7 -42 0
23 -42 0
7 -23 42 0
c gate 43 7 -23 0
7 -43 0
-23 -43 0
-7 23 43 0
c gate 44 -42 -43 0
-42 -44 0
-43 -44 0
42 43 44 0
c gate 45 2 18 0
2 -45 0
18 -45 0
-2 -18 45 0
c gate 46 1 17 0
1 -46 0
17 -46 0
-1 -17 46 0
c gate 47 -45 -46 0
-45 -47 0
-46 -47 0
45 46 47 0
c gate 48 -2 -18 0
-2 -48 0
-18 -48 0
2 18 48 0
c gate 49 -3 -19 0
-3 -49 0
-19 -49 0
3 19 49 0
c gate 50 -48 -49 0
-48 -50 0
-49 -50 0
48 49 50 0
c gate 51 -47 50 0
-47 -51 0
50 -51 0
47 -50 51 0
c gate 52 4 20 0
4 -52 0
20 -52 0
-4 -20 52 0
c gate 53 3 19 0
3 -53 0
19 -53 0
-3 -19 53 0
c gate 54 -52 -53 0
-52 -54 0
-53 -54 0
52 53 54 0
c gate 55 -51 54 0
-51 -55 0
54 -55 0
51 -54 55 0
c gate 56 -5 -21 0
-5 -56 0
-21 -56 0
5 21 56 0
c gate 57 -4 -20 0
-4 -57 0
-20 -57 0
4 20 57 0
c gate 58 -56 -57 0
-56 -58 0
-57 -58 0
56 57 58 0
c gate 59 -55 58 0
-55 -59 0
58 -59 0
55 -58 59 0
c gate 60 6 -22 0
6 -60 0
-22 -60 0
-6 22 60 0
c gate 61 -6 22 0
-6 -61 0
22 -61 0
6 -22 61 0
c gate 62 -60 -61 0
-60 -62 0
-61 -62 0
60 61 62 0
c gate 63 5 21 0
5 -63 0
21 -63 0
-5 -21 63 0
c gate 64 -62 -63 0
-62 -64 0
-63 -64 0
62 63 64 0
c gate 65 -59 64 0
-59 -65 0
64 -65 0
59 -64 65 0
c gate 66 -6 -22 0
-6 -66 0
-22 -66 0
6 22 66 0
c gate 67 -65 -66 0
-65 -67 0
-66 -67 0
65 66 67 0
c gate 68 -44 -67 0
-44 -68 0
-67 -68 0
44 67 68 0
c gate 69 41 68 0
41 -69 0
68 -69 0
-41 -68 69 0
c gate 70 -7 -23 0
-7 -70 0
-23 -70 0
7 23 70 0
c gate 71 -39 70 0
-39 -71 0
70 -71 0
39 -70 71 0
c gate 72 -9 -25 0
-9 -72 0
-25 -72 0
9 25 72 0
c gate 73 -40 -72 0
-40 -73 0
-72 -73 0
40 72 73 0
c gate 74 -71 73 0
-71 -74 0
73 -74 0
71 -73 74 0
c gate 75 -69 74 0
-69 -75 0
74 -75 0
69 -74 75 0
c gate 76 -38 -75 0
-38 -76 0
-75 -76 0
38 75 76 0
c gate 77 -37 -76 0
-37 -77 0
-76 -77 0
37 76 77 0
c gate 78 11 27 0
11 -78 0
27 -78 0
-11 -27 78 0
c gate 79 10 26 0
10 -79 0
26 -79 0
-10 -26 79 0
c gate 80 -78 -79 0
-78 -80 0
-79 -80 0
78 79 80 0
c gate 81 -77 80 0
-77 -81 0
80 -81 0
77 -80 81 0
c gate 82 -36 -81 0
-36 -82 0
-81 -82 0
36 81 82 0
c gate 83 35 82 0
35 -83 0
82 -83 0
-35 -82 83 0
c gate 84 -36 -78 0
-36 -84 0
-78 -84 0
36 78 84 0
c gate 85 10 -26 0
10 -85 0
-26 -85 0
-10 26 85 0
c gate 86 8 -24 0
8 -86 0
-24 -86 0
-8 24 86 0
c gate 87 -38 -72 0
-38 -87 0
-72 -87 0
38 72 87 0
c gate 88 -86 -87 0
-86 -88 0
-87 -88 0
86 87 88 0
c gate 89 -10 26 0
-10 -89 0
26 -89 0
10 -26 89 0
c gate 90 -9 25 0
-9 -90 0
25 -90 0
9 -25 90 0
c gate 91 -89 -90 0
-89 -91 0
-90 -91 0
89 90 91 0
c gate 92 -88 91 0
-88 -92 0
91 -92 0
88 -91 92 0
c gate 93 -85 -92 0
-85 -93 0
-92 -93 0
85 92 93 0
c gate 94 -43 -60 0
-43 -94 0
-60 -94 0
43 60 94 0
c gate 95 -2 18 0
-2 -95 0
18 -95 0
2 -18 95 0
c gate 96 -1 17 0
-1 -96 0
17 -96 0
1 -17 96 0
c gate 97 -95 -96 0
-95 -97 0
-96 -97 0
95 96 97 0
c gate 98 2 -18 0
2 -98 0
-18 -98 0
-2 18 98 0
c gate 99 3 -19 0
3 -99 0
-19 -99 0
-3 19 99 0
c gate 100 -98 -99 0
-98 -100 0
-99 -100 0
98 99 100 0
c gate 101 -97 100 0
-97 -101 0
100 -101 0
97 -100 101 0
c gate 102 -4 20 0
-4 -102 0
20 -102 0
4 -20 102 0
c gate 103 -3 19 0
-3 -103 0
19 -103 0
3 -19 103 0
c gate 104 -102 -103 0
-102 -104 0
-103 -104 0
102 103 104 0
c gate 105 -101 104 0
-101 -105 0
104 -105 0
101 -104 105 0
c gate 106 5 -21 0
5 -106 0
-21 -106 0
-5 21 106 0
c gate 107 4 -20 0
4 -107 0
-20 -107 0
-4 20 107 0
c gate 108 -106 -107 0
-106 -108 0
-107 -108 0
106 107 108 0
c gate 109 -105 108 0
-105 -109 0
108 -109 0
105 -108 109 0
c gate 110 -5 21 0
-5 -110 0
21 -110 0
5 -21 110 0
c gate 111 62 -110 0
62 -111 0
-110 -111 0
-62 110 111 0
c gate 112 -109 111 0
-109 -112 0
111 -112 0
109 -111 112 0
c gate 113 94 -112 0
94 -113 0
-112 -113 0
-94 112 113 0
c gate 114 -42 -113 0
-42 -114 0
-113 -114 0
42 113 114 0
c gate 115 -41 114 0
-41 -115 0
114 -115 0
41 -114 115 0
c gate 116 91 115 0
91 -116 0
115 -116 0
-91 -115 116 0
c gate 117 93 -116 0
93 -117 0
-116 -117 0
-93 116 117 0
c gate 118 -84 117 0
-84 -118 0
117 -118 0
84 -117 118 0
c gate 119 84 -117 0
84 -119 0
-117 -119 0
-84 117 119 0
c gate 120 -118 -119 0
-118 -120 0
-119 -120 0
118 119 120 0
c gate 121 93 -120 0
93 -121 0
-120 -121 0
-93 120 121 0
c gate 122 -44 112 0
-44 -122 0
112 -122 0
44 -112 122 0
c gate 123 -38 -79 0
-38 -123 0
-79 -123 0
38 79 123 0
c gate 124 -74 123 0
-74 -124 0
123 -124 0
74 -123 124 0
c gate 125 -36 -37 0
-36 -125 0
-37 -125 0
36 37 125 0
c gate 126 -124 125 0
-124 -126 0
125 -126 0
124 -125 126 0
c gate 127 -78 -126 0
-78 -127 0
-126 -127 0
78 126 127 0
c gate 128 -35 82 0
-35 -128 0
82 -128 0
35 -82 128 0
c gate 129 127 -128 0
127 -129 0
-128 -129 0
-127 128 129 0
c gate 130 35 -82 0
35 -130 0
-82 -130 0
-35 82 130 0
c gate 131 -127 -130 0
-127 -131 0
-130 -131 0
127 130 131 0
c gate 132 -129 -131 0
-129 -132 0
-131 -132 0
129 131 132 0
c gate 133 69 132 0
69 -133 0
132 -133 0
-69 -132 133 0
c gate 134 -14 -30 0
-14 -134 0
-30 -134 0
14 30 134 0
c gate 135 14 30 0
14 -135 0
30 -135 0
-14 -30 135 0
c gate 136 -134 -135 0
-134 -136 0
-135 -136 0
134 135 136 0
c gate 137 -33 136 0
-33 -137 0
136 -137 0
33 -136 137 0
c gate 138 13 -29 0
13 -138 0
-29 -138 0
-13 29 138 0
c gate 139 -13 29 0
-13 -139 0
29 -139 0
13 -29 139 0
c gate 140 -138 -139 0
-138 -140 0
-139 -140 0
138 139 140 0
c gate 141 -16 -32 0
-16 -141 0
-32 -141 0
16 32 141 0
c gate 142 16 32 0
16 -142 0
32 -142 0
-16 -32 142 0
c gate 143 -141 -142 0
-141 -143 0
-142 -143 0
141 142 143 0
c gate 144 -15 -31 0
-15 -144 0
-31 -144 0
15 31 144 0
c gate 145 15 31 0
15 -145 0
31 -145 0
-15 -31 145 0
c gate 146 -144 -145 0
-144 -146 0
-145 -146 0
144 145 146 0
c gate 147 143 146 0
143 -147 0
146 -147 0
-143 -146 147 0
c gate 148 -140 147 0
-140 -148 0
147 -148 0
140 -147 148 0
c gate 149 137 148 0
137 -149 0
148 -149 0
-137 -148 149 0
c gate 150 83 -149 0
83 -150 0
-149 -150 0
-83 149 150 0
c gate 151 -133 -150 0
-133 -151 0
-150 -151 0
133 150 151 0
c gate 152 -34 149 0
-34 -152 0
149 -152 0
34 -149 152 0
c gate 153 82 152 0
82 -153 0
152 -153 0
-82 -152 153 0
c gate 154 -112 -153 0
-112 -154 0
-153 -154 0
112 153 154 0
c gate 155 -151 154 0
-151 -155 0
154 -155 0
151 -154 155 0
c gate 156 -122 -155 0
-122 -156 0
-155 -156 0
122 155 156 0
c gate 157 -115 -156 0
-115 -157 0
-156 -157 0
115 156 157 0
c gate 158 41 94 0
41 -158 0
94 -158 0
-41 -94 158 0
c gate 159 114 158 0
114 -159 0
158 -159 0
-114 -158 159 0
c gate 160 -115 -159 0
-115 -160 0
-159 -160 0
115 159 160 0
c gate 161 -37 -79 0
-37 -161 0
-79 -161 0
37 79 161 0
c gate 162 -87 -161 0
-87 -162 0
-161 -162 0
87 161 162 0
c gate 163 -159 162 0
-159 -163 0
162 -163 0
159 -162 163 0
c gate 164 -160 -163 0
-160 -164 0
-163 -164 0
160 163 164 0
c gate 165 -157 -164 0
-157 -165 0
-164 -165 0
157 164 165 0
c gate 166 -121 165 0
-121 -166 0
165 -166 0
121 -165 166 0
c gate 167 -118 -166 0
-118 -167 0
-166 -167 0
118 166 167 0
c gate 168 -35 -136 0
-35 -168 0
-136 -168 0
35 136 168 0
c gate 169 -143 -146 0
-143 -169 0
-146 -169 0
143 146 169 0
c gate 170 140 169 0
140 -170 0
169 -170 0
-140 -169 170 0
c gate 171 168 170 0
168 -171 0
170 -171 0
-168 -170 171 0
c gate 172 118 171 0
118 -172 0
171 -172 0
-118 -171 172 0
c gate 173 -167 -172 0
-167 -173 0
-172 -173 0
167 172 173 0
c gate 174 -65 -68 0
-65 -174 0
-68 -174 0
65 68 174 0
c gate 175 -173 -174 0
-173 -175 0
-174 -175 0
173 174 175 0
c gate 176 83 -175 0
83 -176 0
-175 -176 0
-83 175 176 0
c gate 177 -83 -132 0
-83 -177 0
-132 -177 0
83 132 177 0
c gate 178 175 177 0
175 -178 0
177 -178 0
-175 -177 178 0
c gate 179 -176 -178 0
-176 -179 0
-178 -179 0
176 178 179 0
c PO
-179 0
